lps/t_sol_ini_ID000M003J005_ZintFalse_liao.lp
\ This file has been generated by DOcplex
\ ENCODING=ISO-8859-1
\Problem name: liao

Minimize
 obj: cmax
Subject To
 c1: x_1_0 - x_0_0 >= 1
 c2: x_2_0 - x_1_0 >= 3
 c3: x_0_1 - x_1_1 >= 8
 c4: x_2_1 - x_0_1 >= 5
 c5: x_2_2 - x_0_2 >= 5
 c6: x_1_2 - x_2_2 >= 4
 c7: x_0_3 - x_2_3 >= 4
 c8: x_1_3 - x_0_3 >= 10
 c9: x_2_4 - x_1_4 >= 8
 c10: x_0_4 - x_2_4 >= 3
 c11: x_0_0 - x_0_1 + 84 z_0_0_1 - q_0_0_1 = 5
 c12: x_0_0 - x_0_2 + 84 z_0_0_2 - q_0_0_2 = 5
 c13: x_0_0 - x_0_3 + 84 z_0_0_3 - q_0_0_3 = 10
 c14: x_0_0 - x_0_4 + 84 z_0_0_4 - q_0_0_4 = 7
 c15: x_0_1 - x_0_2 + 84 z_0_1_2 - q_0_1_2 = 5
 c16: x_0_1 - x_0_3 + 84 z_0_1_3 - q_0_1_3 = 10
 c17: x_0_1 - x_0_4 + 84 z_0_1_4 - q_0_1_4 = 7
 c18: x_0_2 - x_0_3 + 84 z_0_2_3 - q_0_2_3 = 10
 c19: x_0_2 - x_0_4 + 84 z_0_2_4 - q_0_2_4 = 7
 c20: x_0_3 - x_0_4 + 84 z_0_3_4 - q_0_3_4 = 7
 c21: x_1_0 - x_1_1 + 84 z_1_0_1 - q_1_0_1 = 8
 c22: x_1_0 - x_1_2 + 84 z_1_0_2 - q_1_0_2 = 8
 c23: x_1_0 - x_1_3 + 84 z_1_0_3 - q_1_0_3 = 6
 c24: x_1_0 - x_1_4 + 84 z_1_0_4 - q_1_0_4 = 8
 c25: x_1_1 - x_1_2 + 84 z_1_1_2 - q_1_1_2 = 8
 c26: x_1_1 - x_1_3 + 84 z_1_1_3 - q_1_1_3 = 6
 c27: x_1_1 - x_1_4 + 84 z_1_1_4 - q_1_1_4 = 8
 c28: x_1_2 - x_1_3 + 84 z_1_2_3 - q_1_2_3 = 6
 c29: x_1_2 - x_1_4 + 84 z_1_2_4 - q_1_2_4 = 8
 c30: x_1_3 - x_1_4 + 84 z_1_3_4 - q_1_3_4 = 8
 c31: x_2_0 - x_2_1 + 84 z_2_0_1 - q_2_0_1 = 10
 c32: x_2_0 - x_2_2 + 84 z_2_0_2 - q_2_0_2 = 4
 c33: x_2_0 - x_2_3 + 84 z_2_0_3 - q_2_0_3 = 4
 c34: x_2_0 - x_2_4 + 84 z_2_0_4 - q_2_0_4 = 3
 c35: x_2_1 - x_2_2 + 84 z_2_1_2 - q_2_1_2 = 4
 c36: x_2_1 - x_2_3 + 84 z_2_1_3 - q_2_1_3 = 4
 c37: x_2_1 - x_2_4 + 84 z_2_1_4 - q_2_1_4 = 3
 c38: x_2_2 - x_2_3 + 84 z_2_2_3 - q_2_2_3 = 4
 c39: x_2_2 - x_2_4 + 84 z_2_2_4 - q_2_2_4 = 3
 c40: x_2_3 - x_2_4 + 84 z_2_3_4 - q_2_3_4 = 3
 c41: cmax - x_2_0 >= 2
 c42: cmax - x_2_1 >= 10
 c43: cmax - x_1_2 >= 8
 c44: cmax - x_1_3 >= 6
 c45: cmax - x_0_4 >= 7

Bounds
       z_0_0_1 <= 1
       z_0_0_2 <= 1
       z_0_0_3 <= 1
       z_0_0_4 <= 1
       z_0_1_2 <= 1
       z_0_1_3 <= 1
       z_0_1_4 <= 1
       z_0_2_3 <= 1
       z_0_2_4 <= 1
       z_0_3_4 <= 1
       z_1_0_1 <= 1
       z_1_0_2 <= 1
       z_1_0_3 <= 1
       z_1_0_4 <= 1
       z_1_1_2 <= 1
       z_1_1_3 <= 1
       z_1_1_4 <= 1
       z_1_2_3 <= 1
       z_1_2_4 <= 1
       z_1_3_4 <= 1
       z_2_0_1 <= 1
       z_2_0_2 <= 1
       z_2_0_3 <= 1
       z_2_0_4 <= 1
       z_2_1_2 <= 1
       z_2_1_3 <= 1
       z_2_1_4 <= 1
       z_2_2_3 <= 1
       z_2_2_4 <= 1
       z_2_3_4 <= 1
 33 <= cmax
       q_0_0_1 <= 78
       q_0_0_2 <= 78
       q_0_0_3 <= 73
       q_0_0_4 <= 76
       q_0_1_2 <= 74
       q_0_1_3 <= 69
       q_0_1_4 <= 72
       q_0_2_3 <= 69
       q_0_2_4 <= 72
       q_0_3_4 <= 67
       q_1_0_1 <= 73
       q_1_0_2 <= 73
       q_1_0_3 <= 75
       q_1_0_4 <= 73
       q_1_1_2 <= 68
       q_1_1_3 <= 70
       q_1_1_4 <= 68
       q_1_2_3 <= 70
       q_1_2_4 <= 68
       q_1_3_4 <= 70
       q_2_0_1 <= 72
       q_2_0_2 <= 78
       q_2_0_3 <= 78
       q_2_0_4 <= 79
       q_2_1_2 <= 70
       q_2_1_3 <= 70
       q_2_1_4 <= 71
       q_2_2_3 <= 76
       q_2_2_4 <= 77
       q_2_3_4 <= 77
End
